c *********************************
c * Circuit generated by BenCGen
c *
c * Decoder_8_256
c *
c * Ports with 1 gate(s): 9
c * Ports with 2 gate(s): 1
c * Ports with 8 gate(s): 256
c * Total gates: 266
c *********************************
p cnf 274 2325
1 266 0
-1 -266 0
1 -265 0
266 -265 0
-1 -266 265 0
1 267 0
-1 -267 0
2 268 0
-2 -268 0
3 269 0
-3 -269 0
4 270 0
-4 -270 0
5 271 0
-5 -271 0
6 272 0
-6 -272 0
7 273 0
-7 -273 0
8 274 0
-8 -274 0
267 -9 0
268 -9 0
269 -9 0
270 -9 0
271 -9 0
272 -9 0
273 -9 0
274 -9 0
-267 -268 -269 -270 -271 -272 -273 -274 9 0
1 -10 0
268 -10 0
269 -10 0
270 -10 0
271 -10 0
272 -10 0
273 -10 0
274 -10 0
-1 -268 -269 -270 -271 -272 -273 -274 10 0
267 -11 0
2 -11 0
269 -11 0
270 -11 0
271 -11 0
272 -11 0
273 -11 0
274 -11 0
-267 -2 -269 -270 -271 -272 -273 -274 11 0
1 -12 0
2 -12 0
269 -12 0
270 -12 0
271 -12 0
272 -12 0
273 -12 0
274 -12 0
-1 -2 -269 -270 -271 -272 -273 -274 12 0
267 -13 0
268 -13 0
3 -13 0
270 -13 0
271 -13 0
272 -13 0
273 -13 0
274 -13 0
-267 -268 -3 -270 -271 -272 -273 -274 13 0
1 -14 0
268 -14 0
3 -14 0
270 -14 0
271 -14 0
272 -14 0
273 -14 0
274 -14 0
-1 -268 -3 -270 -271 -272 -273 -274 14 0
267 -15 0
2 -15 0
3 -15 0
270 -15 0
271 -15 0
272 -15 0
273 -15 0
274 -15 0
-267 -2 -3 -270 -271 -272 -273 -274 15 0
1 -16 0
2 -16 0
3 -16 0
270 -16 0
271 -16 0
272 -16 0
273 -16 0
274 -16 0
-1 -2 -3 -270 -271 -272 -273 -274 16 0
267 -17 0
268 -17 0
269 -17 0
4 -17 0
271 -17 0
272 -17 0
273 -17 0
274 -17 0
-267 -268 -269 -4 -271 -272 -273 -274 17 0
1 -18 0
268 -18 0
269 -18 0
4 -18 0
271 -18 0
272 -18 0
273 -18 0
274 -18 0
-1 -268 -269 -4 -271 -272 -273 -274 18 0
267 -19 0
2 -19 0
269 -19 0
4 -19 0
271 -19 0
272 -19 0
273 -19 0
274 -19 0
-267 -2 -269 -4 -271 -272 -273 -274 19 0
1 -20 0
2 -20 0
269 -20 0
4 -20 0
271 -20 0
272 -20 0
273 -20 0
274 -20 0
-1 -2 -269 -4 -271 -272 -273 -274 20 0
267 -21 0
268 -21 0
3 -21 0
4 -21 0
271 -21 0
272 -21 0
273 -21 0
274 -21 0
-267 -268 -3 -4 -271 -272 -273 -274 21 0
1 -22 0
268 -22 0
3 -22 0
4 -22 0
271 -22 0
272 -22 0
273 -22 0
274 -22 0
-1 -268 -3 -4 -271 -272 -273 -274 22 0
267 -23 0
2 -23 0
3 -23 0
4 -23 0
271 -23 0
272 -23 0
273 -23 0
274 -23 0
-267 -2 -3 -4 -271 -272 -273 -274 23 0
1 -24 0
2 -24 0
3 -24 0
4 -24 0
271 -24 0
272 -24 0
273 -24 0
274 -24 0
-1 -2 -3 -4 -271 -272 -273 -274 24 0
267 -25 0
268 -25 0
269 -25 0
270 -25 0
5 -25 0
272 -25 0
273 -25 0
274 -25 0
-267 -268 -269 -270 -5 -272 -273 -274 25 0
1 -26 0
268 -26 0
269 -26 0
270 -26 0
5 -26 0
272 -26 0
273 -26 0
274 -26 0
-1 -268 -269 -270 -5 -272 -273 -274 26 0
267 -27 0
2 -27 0
269 -27 0
270 -27 0
5 -27 0
272 -27 0
273 -27 0
274 -27 0
-267 -2 -269 -270 -5 -272 -273 -274 27 0
1 -28 0
2 -28 0
269 -28 0
270 -28 0
5 -28 0
272 -28 0
273 -28 0
274 -28 0
-1 -2 -269 -270 -5 -272 -273 -274 28 0
267 -29 0
268 -29 0
3 -29 0
270 -29 0
5 -29 0
272 -29 0
273 -29 0
274 -29 0
-267 -268 -3 -270 -5 -272 -273 -274 29 0
1 -30 0
268 -30 0
3 -30 0
270 -30 0
5 -30 0
272 -30 0
273 -30 0
274 -30 0
-1 -268 -3 -270 -5 -272 -273 -274 30 0
267 -31 0
2 -31 0
3 -31 0
270 -31 0
5 -31 0
272 -31 0
273 -31 0
274 -31 0
-267 -2 -3 -270 -5 -272 -273 -274 31 0
1 -32 0
2 -32 0
3 -32 0
270 -32 0
5 -32 0
272 -32 0
273 -32 0
274 -32 0
-1 -2 -3 -270 -5 -272 -273 -274 32 0
267 -33 0
268 -33 0
269 -33 0
4 -33 0
5 -33 0
272 -33 0
273 -33 0
274 -33 0
-267 -268 -269 -4 -5 -272 -273 -274 33 0
1 -34 0
268 -34 0
269 -34 0
4 -34 0
5 -34 0
272 -34 0
273 -34 0
274 -34 0
-1 -268 -269 -4 -5 -272 -273 -274 34 0
267 -35 0
2 -35 0
269 -35 0
4 -35 0
5 -35 0
272 -35 0
273 -35 0
274 -35 0
-267 -2 -269 -4 -5 -272 -273 -274 35 0
1 -36 0
2 -36 0
269 -36 0
4 -36 0
5 -36 0
272 -36 0
273 -36 0
274 -36 0
-1 -2 -269 -4 -5 -272 -273 -274 36 0
267 -37 0
268 -37 0
3 -37 0
4 -37 0
5 -37 0
272 -37 0
273 -37 0
274 -37 0
-267 -268 -3 -4 -5 -272 -273 -274 37 0
1 -38 0
268 -38 0
3 -38 0
4 -38 0
5 -38 0
272 -38 0
273 -38 0
274 -38 0
-1 -268 -3 -4 -5 -272 -273 -274 38 0
267 -39 0
2 -39 0
3 -39 0
4 -39 0
5 -39 0
272 -39 0
273 -39 0
274 -39 0
-267 -2 -3 -4 -5 -272 -273 -274 39 0
1 -40 0
2 -40 0
3 -40 0
4 -40 0
5 -40 0
272 -40 0
273 -40 0
274 -40 0
-1 -2 -3 -4 -5 -272 -273 -274 40 0
267 -41 0
268 -41 0
269 -41 0
270 -41 0
271 -41 0
6 -41 0
273 -41 0
274 -41 0
-267 -268 -269 -270 -271 -6 -273 -274 41 0
1 -42 0
268 -42 0
269 -42 0
270 -42 0
271 -42 0
6 -42 0
273 -42 0
274 -42 0
-1 -268 -269 -270 -271 -6 -273 -274 42 0
267 -43 0
2 -43 0
269 -43 0
270 -43 0
271 -43 0
6 -43 0
273 -43 0
274 -43 0
-267 -2 -269 -270 -271 -6 -273 -274 43 0
1 -44 0
2 -44 0
269 -44 0
270 -44 0
271 -44 0
6 -44 0
273 -44 0
274 -44 0
-1 -2 -269 -270 -271 -6 -273 -274 44 0
267 -45 0
268 -45 0
3 -45 0
270 -45 0
271 -45 0
6 -45 0
273 -45 0
274 -45 0
-267 -268 -3 -270 -271 -6 -273 -274 45 0
1 -46 0
268 -46 0
3 -46 0
270 -46 0
271 -46 0
6 -46 0
273 -46 0
274 -46 0
-1 -268 -3 -270 -271 -6 -273 -274 46 0
267 -47 0
2 -47 0
3 -47 0
270 -47 0
271 -47 0
6 -47 0
273 -47 0
274 -47 0
-267 -2 -3 -270 -271 -6 -273 -274 47 0
1 -48 0
2 -48 0
3 -48 0
270 -48 0
271 -48 0
6 -48 0
273 -48 0
274 -48 0
-1 -2 -3 -270 -271 -6 -273 -274 48 0
267 -49 0
268 -49 0
269 -49 0
4 -49 0
271 -49 0
6 -49 0
273 -49 0
274 -49 0
-267 -268 -269 -4 -271 -6 -273 -274 49 0
1 -50 0
268 -50 0
269 -50 0
4 -50 0
271 -50 0
6 -50 0
273 -50 0
274 -50 0
-1 -268 -269 -4 -271 -6 -273 -274 50 0
267 -51 0
2 -51 0
269 -51 0
4 -51 0
271 -51 0
6 -51 0
273 -51 0
274 -51 0
-267 -2 -269 -4 -271 -6 -273 -274 51 0
1 -52 0
2 -52 0
269 -52 0
4 -52 0
271 -52 0
6 -52 0
273 -52 0
274 -52 0
-1 -2 -269 -4 -271 -6 -273 -274 52 0
267 -53 0
268 -53 0
3 -53 0
4 -53 0
271 -53 0
6 -53 0
273 -53 0
274 -53 0
-267 -268 -3 -4 -271 -6 -273 -274 53 0
1 -54 0
268 -54 0
3 -54 0
4 -54 0
271 -54 0
6 -54 0
273 -54 0
274 -54 0
-1 -268 -3 -4 -271 -6 -273 -274 54 0
267 -55 0
2 -55 0
3 -55 0
4 -55 0
271 -55 0
6 -55 0
273 -55 0
274 -55 0
-267 -2 -3 -4 -271 -6 -273 -274 55 0
1 -56 0
2 -56 0
3 -56 0
4 -56 0
271 -56 0
6 -56 0
273 -56 0
274 -56 0
-1 -2 -3 -4 -271 -6 -273 -274 56 0
267 -57 0
268 -57 0
269 -57 0
270 -57 0
5 -57 0
6 -57 0
273 -57 0
274 -57 0
-267 -268 -269 -270 -5 -6 -273 -274 57 0
1 -58 0
268 -58 0
269 -58 0
270 -58 0
5 -58 0
6 -58 0
273 -58 0
274 -58 0
-1 -268 -269 -270 -5 -6 -273 -274 58 0
267 -59 0
2 -59 0
269 -59 0
270 -59 0
5 -59 0
6 -59 0
273 -59 0
274 -59 0
-267 -2 -269 -270 -5 -6 -273 -274 59 0
1 -60 0
2 -60 0
269 -60 0
270 -60 0
5 -60 0
6 -60 0
273 -60 0
274 -60 0
-1 -2 -269 -270 -5 -6 -273 -274 60 0
267 -61 0
268 -61 0
3 -61 0
270 -61 0
5 -61 0
6 -61 0
273 -61 0
274 -61 0
-267 -268 -3 -270 -5 -6 -273 -274 61 0
1 -62 0
268 -62 0
3 -62 0
270 -62 0
5 -62 0
6 -62 0
273 -62 0
274 -62 0
-1 -268 -3 -270 -5 -6 -273 -274 62 0
267 -63 0
2 -63 0
3 -63 0
270 -63 0
5 -63 0
6 -63 0
273 -63 0
274 -63 0
-267 -2 -3 -270 -5 -6 -273 -274 63 0
1 -64 0
2 -64 0
3 -64 0
270 -64 0
5 -64 0
6 -64 0
273 -64 0
274 -64 0
-1 -2 -3 -270 -5 -6 -273 -274 64 0
267 -65 0
268 -65 0
269 -65 0
4 -65 0
5 -65 0
6 -65 0
273 -65 0
274 -65 0
-267 -268 -269 -4 -5 -6 -273 -274 65 0
1 -66 0
268 -66 0
269 -66 0
4 -66 0
5 -66 0
6 -66 0
273 -66 0
274 -66 0
-1 -268 -269 -4 -5 -6 -273 -274 66 0
267 -67 0
2 -67 0
269 -67 0
4 -67 0
5 -67 0
6 -67 0
273 -67 0
274 -67 0
-267 -2 -269 -4 -5 -6 -273 -274 67 0
1 -68 0
2 -68 0
269 -68 0
4 -68 0
5 -68 0
6 -68 0
273 -68 0
274 -68 0
-1 -2 -269 -4 -5 -6 -273 -274 68 0
267 -69 0
268 -69 0
3 -69 0
4 -69 0
5 -69 0
6 -69 0
273 -69 0
274 -69 0
-267 -268 -3 -4 -5 -6 -273 -274 69 0
1 -70 0
268 -70 0
3 -70 0
4 -70 0
5 -70 0
6 -70 0
273 -70 0
274 -70 0
-1 -268 -3 -4 -5 -6 -273 -274 70 0
267 -71 0
2 -71 0
3 -71 0
4 -71 0
5 -71 0
6 -71 0
273 -71 0
274 -71 0
-267 -2 -3 -4 -5 -6 -273 -274 71 0
1 -72 0
2 -72 0
3 -72 0
4 -72 0
5 -72 0
6 -72 0
273 -72 0
274 -72 0
-1 -2 -3 -4 -5 -6 -273 -274 72 0
267 -73 0
268 -73 0
269 -73 0
270 -73 0
271 -73 0
272 -73 0
7 -73 0
274 -73 0
-267 -268 -269 -270 -271 -272 -7 -274 73 0
1 -74 0
268 -74 0
269 -74 0
270 -74 0
271 -74 0
272 -74 0
7 -74 0
274 -74 0
-1 -268 -269 -270 -271 -272 -7 -274 74 0
267 -75 0
2 -75 0
269 -75 0
270 -75 0
271 -75 0
272 -75 0
7 -75 0
274 -75 0
-267 -2 -269 -270 -271 -272 -7 -274 75 0
1 -76 0
2 -76 0
269 -76 0
270 -76 0
271 -76 0
272 -76 0
7 -76 0
274 -76 0
-1 -2 -269 -270 -271 -272 -7 -274 76 0
267 -77 0
268 -77 0
3 -77 0
270 -77 0
271 -77 0
272 -77 0
7 -77 0
274 -77 0
-267 -268 -3 -270 -271 -272 -7 -274 77 0
1 -78 0
268 -78 0
3 -78 0
270 -78 0
271 -78 0
272 -78 0
7 -78 0
274 -78 0
-1 -268 -3 -270 -271 -272 -7 -274 78 0
267 -79 0
2 -79 0
3 -79 0
270 -79 0
271 -79 0
272 -79 0
7 -79 0
274 -79 0
-267 -2 -3 -270 -271 -272 -7 -274 79 0
1 -80 0
2 -80 0
3 -80 0
270 -80 0
271 -80 0
272 -80 0
7 -80 0
274 -80 0
-1 -2 -3 -270 -271 -272 -7 -274 80 0
267 -81 0
268 -81 0
269 -81 0
4 -81 0
271 -81 0
272 -81 0
7 -81 0
274 -81 0
-267 -268 -269 -4 -271 -272 -7 -274 81 0
1 -82 0
268 -82 0
269 -82 0
4 -82 0
271 -82 0
272 -82 0
7 -82 0
274 -82 0
-1 -268 -269 -4 -271 -272 -7 -274 82 0
267 -83 0
2 -83 0
269 -83 0
4 -83 0
271 -83 0
272 -83 0
7 -83 0
274 -83 0
-267 -2 -269 -4 -271 -272 -7 -274 83 0
1 -84 0
2 -84 0
269 -84 0
4 -84 0
271 -84 0
272 -84 0
7 -84 0
274 -84 0
-1 -2 -269 -4 -271 -272 -7 -274 84 0
267 -85 0
268 -85 0
3 -85 0
4 -85 0
271 -85 0
272 -85 0
7 -85 0
274 -85 0
-267 -268 -3 -4 -271 -272 -7 -274 85 0
1 -86 0
268 -86 0
3 -86 0
4 -86 0
271 -86 0
272 -86 0
7 -86 0
274 -86 0
-1 -268 -3 -4 -271 -272 -7 -274 86 0
267 -87 0
2 -87 0
3 -87 0
4 -87 0
271 -87 0
272 -87 0
7 -87 0
274 -87 0
-267 -2 -3 -4 -271 -272 -7 -274 87 0
1 -88 0
2 -88 0
3 -88 0
4 -88 0
271 -88 0
272 -88 0
7 -88 0
274 -88 0
-1 -2 -3 -4 -271 -272 -7 -274 88 0
267 -89 0
268 -89 0
269 -89 0
270 -89 0
5 -89 0
272 -89 0
7 -89 0
274 -89 0
-267 -268 -269 -270 -5 -272 -7 -274 89 0
1 -90 0
268 -90 0
269 -90 0
270 -90 0
5 -90 0
272 -90 0
7 -90 0
274 -90 0
-1 -268 -269 -270 -5 -272 -7 -274 90 0
267 -91 0
2 -91 0
269 -91 0
270 -91 0
5 -91 0
272 -91 0
7 -91 0
274 -91 0
-267 -2 -269 -270 -5 -272 -7 -274 91 0
1 -92 0
2 -92 0
269 -92 0
270 -92 0
5 -92 0
272 -92 0
7 -92 0
274 -92 0
-1 -2 -269 -270 -5 -272 -7 -274 92 0
267 -93 0
268 -93 0
3 -93 0
270 -93 0
5 -93 0
272 -93 0
7 -93 0
274 -93 0
-267 -268 -3 -270 -5 -272 -7 -274 93 0
1 -94 0
268 -94 0
3 -94 0
270 -94 0
5 -94 0
272 -94 0
7 -94 0
274 -94 0
-1 -268 -3 -270 -5 -272 -7 -274 94 0
267 -95 0
2 -95 0
3 -95 0
270 -95 0
5 -95 0
272 -95 0
7 -95 0
274 -95 0
-267 -2 -3 -270 -5 -272 -7 -274 95 0
1 -96 0
2 -96 0
3 -96 0
270 -96 0
5 -96 0
272 -96 0
7 -96 0
274 -96 0
-1 -2 -3 -270 -5 -272 -7 -274 96 0
267 -97 0
268 -97 0
269 -97 0
4 -97 0
5 -97 0
272 -97 0
7 -97 0
274 -97 0
-267 -268 -269 -4 -5 -272 -7 -274 97 0
1 -98 0
268 -98 0
269 -98 0
4 -98 0
5 -98 0
272 -98 0
7 -98 0
274 -98 0
-1 -268 -269 -4 -5 -272 -7 -274 98 0
267 -99 0
2 -99 0
269 -99 0
4 -99 0
5 -99 0
272 -99 0
7 -99 0
274 -99 0
-267 -2 -269 -4 -5 -272 -7 -274 99 0
1 -100 0
2 -100 0
269 -100 0
4 -100 0
5 -100 0
272 -100 0
7 -100 0
274 -100 0
-1 -2 -269 -4 -5 -272 -7 -274 100 0
267 -101 0
268 -101 0
3 -101 0
4 -101 0
5 -101 0
272 -101 0
7 -101 0
274 -101 0
-267 -268 -3 -4 -5 -272 -7 -274 101 0
1 -102 0
268 -102 0
3 -102 0
4 -102 0
5 -102 0
272 -102 0
7 -102 0
274 -102 0
-1 -268 -3 -4 -5 -272 -7 -274 102 0
267 -103 0
2 -103 0
3 -103 0
4 -103 0
5 -103 0
272 -103 0
7 -103 0
274 -103 0
-267 -2 -3 -4 -5 -272 -7 -274 103 0
1 -104 0
2 -104 0
3 -104 0
4 -104 0
5 -104 0
272 -104 0
7 -104 0
274 -104 0
-1 -2 -3 -4 -5 -272 -7 -274 104 0
267 -105 0
268 -105 0
269 -105 0
270 -105 0
271 -105 0
6 -105 0
7 -105 0
274 -105 0
-267 -268 -269 -270 -271 -6 -7 -274 105 0
1 -106 0
268 -106 0
269 -106 0
270 -106 0
271 -106 0
6 -106 0
7 -106 0
274 -106 0
-1 -268 -269 -270 -271 -6 -7 -274 106 0
267 -107 0
2 -107 0
269 -107 0
270 -107 0
271 -107 0
6 -107 0
7 -107 0
274 -107 0
-267 -2 -269 -270 -271 -6 -7 -274 107 0
1 -108 0
2 -108 0
269 -108 0
270 -108 0
271 -108 0
6 -108 0
7 -108 0
274 -108 0
-1 -2 -269 -270 -271 -6 -7 -274 108 0
267 -109 0
268 -109 0
3 -109 0
270 -109 0
271 -109 0
6 -109 0
7 -109 0
274 -109 0
-267 -268 -3 -270 -271 -6 -7 -274 109 0
1 -110 0
268 -110 0
3 -110 0
270 -110 0
271 -110 0
6 -110 0
7 -110 0
274 -110 0
-1 -268 -3 -270 -271 -6 -7 -274 110 0
267 -111 0
2 -111 0
3 -111 0
270 -111 0
271 -111 0
6 -111 0
7 -111 0
274 -111 0
-267 -2 -3 -270 -271 -6 -7 -274 111 0
1 -112 0
2 -112 0
3 -112 0
270 -112 0
271 -112 0
6 -112 0
7 -112 0
274 -112 0
-1 -2 -3 -270 -271 -6 -7 -274 112 0
267 -113 0
268 -113 0
269 -113 0
4 -113 0
271 -113 0
6 -113 0
7 -113 0
274 -113 0
-267 -268 -269 -4 -271 -6 -7 -274 113 0
1 -114 0
268 -114 0
269 -114 0
4 -114 0
271 -114 0
6 -114 0
7 -114 0
274 -114 0
-1 -268 -269 -4 -271 -6 -7 -274 114 0
267 -115 0
2 -115 0
269 -115 0
4 -115 0
271 -115 0
6 -115 0
7 -115 0
274 -115 0
-267 -2 -269 -4 -271 -6 -7 -274 115 0
1 -116 0
2 -116 0
269 -116 0
4 -116 0
271 -116 0
6 -116 0
7 -116 0
274 -116 0
-1 -2 -269 -4 -271 -6 -7 -274 116 0
267 -117 0
268 -117 0
3 -117 0
4 -117 0
271 -117 0
6 -117 0
7 -117 0
274 -117 0
-267 -268 -3 -4 -271 -6 -7 -274 117 0
1 -118 0
268 -118 0
3 -118 0
4 -118 0
271 -118 0
6 -118 0
7 -118 0
274 -118 0
-1 -268 -3 -4 -271 -6 -7 -274 118 0
267 -119 0
2 -119 0
3 -119 0
4 -119 0
271 -119 0
6 -119 0
7 -119 0
274 -119 0
-267 -2 -3 -4 -271 -6 -7 -274 119 0
1 -120 0
2 -120 0
3 -120 0
4 -120 0
271 -120 0
6 -120 0
7 -120 0
274 -120 0
-1 -2 -3 -4 -271 -6 -7 -274 120 0
267 -121 0
268 -121 0
269 -121 0
270 -121 0
5 -121 0
6 -121 0
7 -121 0
274 -121 0
-267 -268 -269 -270 -5 -6 -7 -274 121 0
1 -122 0
268 -122 0
269 -122 0
270 -122 0
5 -122 0
6 -122 0
7 -122 0
274 -122 0
-1 -268 -269 -270 -5 -6 -7 -274 122 0
267 -123 0
2 -123 0
269 -123 0
270 -123 0
5 -123 0
6 -123 0
7 -123 0
274 -123 0
-267 -2 -269 -270 -5 -6 -7 -274 123 0
1 -124 0
2 -124 0
269 -124 0
270 -124 0
5 -124 0
6 -124 0
7 -124 0
274 -124 0
-1 -2 -269 -270 -5 -6 -7 -274 124 0
267 -125 0
268 -125 0
3 -125 0
270 -125 0
5 -125 0
6 -125 0
7 -125 0
274 -125 0
-267 -268 -3 -270 -5 -6 -7 -274 125 0
1 -126 0
268 -126 0
3 -126 0
270 -126 0
5 -126 0
6 -126 0
7 -126 0
274 -126 0
-1 -268 -3 -270 -5 -6 -7 -274 126 0
267 -127 0
2 -127 0
3 -127 0
270 -127 0
5 -127 0
6 -127 0
7 -127 0
274 -127 0
-267 -2 -3 -270 -5 -6 -7 -274 127 0
1 -128 0
2 -128 0
3 -128 0
270 -128 0
5 -128 0
6 -128 0
7 -128 0
274 -128 0
-1 -2 -3 -270 -5 -6 -7 -274 128 0
267 -129 0
268 -129 0
269 -129 0
4 -129 0
5 -129 0
6 -129 0
7 -129 0
274 -129 0
-267 -268 -269 -4 -5 -6 -7 -274 129 0
1 -130 0
268 -130 0
269 -130 0
4 -130 0
5 -130 0
6 -130 0
7 -130 0
274 -130 0
-1 -268 -269 -4 -5 -6 -7 -274 130 0
267 -131 0
2 -131 0
269 -131 0
4 -131 0
5 -131 0
6 -131 0
7 -131 0
274 -131 0
-267 -2 -269 -4 -5 -6 -7 -274 131 0
1 -132 0
2 -132 0
269 -132 0
4 -132 0
5 -132 0
6 -132 0
7 -132 0
274 -132 0
-1 -2 -269 -4 -5 -6 -7 -274 132 0
267 -133 0
268 -133 0
3 -133 0
4 -133 0
5 -133 0
6 -133 0
7 -133 0
274 -133 0
-267 -268 -3 -4 -5 -6 -7 -274 133 0
1 -134 0
268 -134 0
3 -134 0
4 -134 0
5 -134 0
6 -134 0
7 -134 0
274 -134 0
-1 -268 -3 -4 -5 -6 -7 -274 134 0
267 -135 0
2 -135 0
3 -135 0
4 -135 0
5 -135 0
6 -135 0
7 -135 0
274 -135 0
-267 -2 -3 -4 -5 -6 -7 -274 135 0
1 -136 0
2 -136 0
3 -136 0
4 -136 0
5 -136 0
6 -136 0
7 -136 0
274 -136 0
-1 -2 -3 -4 -5 -6 -7 -274 136 0
267 -137 0
268 -137 0
269 -137 0
270 -137 0
271 -137 0
272 -137 0
273 -137 0
8 -137 0
-267 -268 -269 -270 -271 -272 -273 -8 137 0
1 -138 0
268 -138 0
269 -138 0
270 -138 0
271 -138 0
272 -138 0
273 -138 0
8 -138 0
-1 -268 -269 -270 -271 -272 -273 -8 138 0
267 -139 0
2 -139 0
269 -139 0
270 -139 0
271 -139 0
272 -139 0
273 -139 0
8 -139 0
-267 -2 -269 -270 -271 -272 -273 -8 139 0
1 -140 0
2 -140 0
269 -140 0
270 -140 0
271 -140 0
272 -140 0
273 -140 0
8 -140 0
-1 -2 -269 -270 -271 -272 -273 -8 140 0
267 -141 0
268 -141 0
3 -141 0
270 -141 0
271 -141 0
272 -141 0
273 -141 0
8 -141 0
-267 -268 -3 -270 -271 -272 -273 -8 141 0
1 -142 0
268 -142 0
3 -142 0
270 -142 0
271 -142 0
272 -142 0
273 -142 0
8 -142 0
-1 -268 -3 -270 -271 -272 -273 -8 142 0
267 -143 0
2 -143 0
3 -143 0
270 -143 0
271 -143 0
272 -143 0
273 -143 0
8 -143 0
-267 -2 -3 -270 -271 -272 -273 -8 143 0
1 -144 0
2 -144 0
3 -144 0
270 -144 0
271 -144 0
272 -144 0
273 -144 0
8 -144 0
-1 -2 -3 -270 -271 -272 -273 -8 144 0
267 -145 0
268 -145 0
269 -145 0
4 -145 0
271 -145 0
272 -145 0
273 -145 0
8 -145 0
-267 -268 -269 -4 -271 -272 -273 -8 145 0
1 -146 0
268 -146 0
269 -146 0
4 -146 0
271 -146 0
272 -146 0
273 -146 0
8 -146 0
-1 -268 -269 -4 -271 -272 -273 -8 146 0
267 -147 0
2 -147 0
269 -147 0
4 -147 0
271 -147 0
272 -147 0
273 -147 0
8 -147 0
-267 -2 -269 -4 -271 -272 -273 -8 147 0
1 -148 0
2 -148 0
269 -148 0
4 -148 0
271 -148 0
272 -148 0
273 -148 0
8 -148 0
-1 -2 -269 -4 -271 -272 -273 -8 148 0
267 -149 0
268 -149 0
3 -149 0
4 -149 0
271 -149 0
272 -149 0
273 -149 0
8 -149 0
-267 -268 -3 -4 -271 -272 -273 -8 149 0
1 -150 0
268 -150 0
3 -150 0
4 -150 0
271 -150 0
272 -150 0
273 -150 0
8 -150 0
-1 -268 -3 -4 -271 -272 -273 -8 150 0
267 -151 0
2 -151 0
3 -151 0
4 -151 0
271 -151 0
272 -151 0
273 -151 0
8 -151 0
-267 -2 -3 -4 -271 -272 -273 -8 151 0
1 -152 0
2 -152 0
3 -152 0
4 -152 0
271 -152 0
272 -152 0
273 -152 0
8 -152 0
-1 -2 -3 -4 -271 -272 -273 -8 152 0
267 -153 0
268 -153 0
269 -153 0
270 -153 0
5 -153 0
272 -153 0
273 -153 0
8 -153 0
-267 -268 -269 -270 -5 -272 -273 -8 153 0
1 -154 0
268 -154 0
269 -154 0
270 -154 0
5 -154 0
272 -154 0
273 -154 0
8 -154 0
-1 -268 -269 -270 -5 -272 -273 -8 154 0
267 -155 0
2 -155 0
269 -155 0
270 -155 0
5 -155 0
272 -155 0
273 -155 0
8 -155 0
-267 -2 -269 -270 -5 -272 -273 -8 155 0
1 -156 0
2 -156 0
269 -156 0
270 -156 0
5 -156 0
272 -156 0
273 -156 0
8 -156 0
-1 -2 -269 -270 -5 -272 -273 -8 156 0
267 -157 0
268 -157 0
3 -157 0
270 -157 0
5 -157 0
272 -157 0
273 -157 0
8 -157 0
-267 -268 -3 -270 -5 -272 -273 -8 157 0
1 -158 0
268 -158 0
3 -158 0
270 -158 0
5 -158 0
272 -158 0
273 -158 0
8 -158 0
-1 -268 -3 -270 -5 -272 -273 -8 158 0
267 -159 0
2 -159 0
3 -159 0
270 -159 0
5 -159 0
272 -159 0
273 -159 0
8 -159 0
-267 -2 -3 -270 -5 -272 -273 -8 159 0
1 -160 0
2 -160 0
3 -160 0
270 -160 0
5 -160 0
272 -160 0
273 -160 0
8 -160 0
-1 -2 -3 -270 -5 -272 -273 -8 160 0
267 -161 0
268 -161 0
269 -161 0
4 -161 0
5 -161 0
272 -161 0
273 -161 0
8 -161 0
-267 -268 -269 -4 -5 -272 -273 -8 161 0
1 -162 0
268 -162 0
269 -162 0
4 -162 0
5 -162 0
272 -162 0
273 -162 0
8 -162 0
-1 -268 -269 -4 -5 -272 -273 -8 162 0
267 -163 0
2 -163 0
269 -163 0
4 -163 0
5 -163 0
272 -163 0
273 -163 0
8 -163 0
-267 -2 -269 -4 -5 -272 -273 -8 163 0
1 -164 0
2 -164 0
269 -164 0
4 -164 0
5 -164 0
272 -164 0
273 -164 0
8 -164 0
-1 -2 -269 -4 -5 -272 -273 -8 164 0
267 -165 0
268 -165 0
3 -165 0
4 -165 0
5 -165 0
272 -165 0
273 -165 0
8 -165 0
-267 -268 -3 -4 -5 -272 -273 -8 165 0
1 -166 0
268 -166 0
3 -166 0
4 -166 0
5 -166 0
272 -166 0
273 -166 0
8 -166 0
-1 -268 -3 -4 -5 -272 -273 -8 166 0
267 -167 0
2 -167 0
3 -167 0
4 -167 0
5 -167 0
272 -167 0
273 -167 0
8 -167 0
-267 -2 -3 -4 -5 -272 -273 -8 167 0
1 -168 0
2 -168 0
3 -168 0
4 -168 0
5 -168 0
272 -168 0
273 -168 0
8 -168 0
-1 -2 -3 -4 -5 -272 -273 -8 168 0
267 -169 0
268 -169 0
269 -169 0
270 -169 0
271 -169 0
6 -169 0
273 -169 0
8 -169 0
-267 -268 -269 -270 -271 -6 -273 -8 169 0
1 -170 0
268 -170 0
269 -170 0
270 -170 0
271 -170 0
6 -170 0
273 -170 0
8 -170 0
-1 -268 -269 -270 -271 -6 -273 -8 170 0
267 -171 0
2 -171 0
269 -171 0
270 -171 0
271 -171 0
6 -171 0
273 -171 0
8 -171 0
-267 -2 -269 -270 -271 -6 -273 -8 171 0
1 -172 0
2 -172 0
269 -172 0
270 -172 0
271 -172 0
6 -172 0
273 -172 0
8 -172 0
-1 -2 -269 -270 -271 -6 -273 -8 172 0
267 -173 0
268 -173 0
3 -173 0
270 -173 0
271 -173 0
6 -173 0
273 -173 0
8 -173 0
-267 -268 -3 -270 -271 -6 -273 -8 173 0
1 -174 0
268 -174 0
3 -174 0
270 -174 0
271 -174 0
6 -174 0
273 -174 0
8 -174 0
-1 -268 -3 -270 -271 -6 -273 -8 174 0
267 -175 0
2 -175 0
3 -175 0
270 -175 0
271 -175 0
6 -175 0
273 -175 0
8 -175 0
-267 -2 -3 -270 -271 -6 -273 -8 175 0
1 -176 0
2 -176 0
3 -176 0
270 -176 0
271 -176 0
6 -176 0
273 -176 0
8 -176 0
-1 -2 -3 -270 -271 -6 -273 -8 176 0
267 -177 0
268 -177 0
269 -177 0
4 -177 0
271 -177 0
6 -177 0
273 -177 0
8 -177 0
-267 -268 -269 -4 -271 -6 -273 -8 177 0
1 -178 0
268 -178 0
269 -178 0
4 -178 0
271 -178 0
6 -178 0
273 -178 0
8 -178 0
-1 -268 -269 -4 -271 -6 -273 -8 178 0
267 -179 0
2 -179 0
269 -179 0
4 -179 0
271 -179 0
6 -179 0
273 -179 0
8 -179 0
-267 -2 -269 -4 -271 -6 -273 -8 179 0
1 -180 0
2 -180 0
269 -180 0
4 -180 0
271 -180 0
6 -180 0
273 -180 0
8 -180 0
-1 -2 -269 -4 -271 -6 -273 -8 180 0
267 -181 0
268 -181 0
3 -181 0
4 -181 0
271 -181 0
6 -181 0
273 -181 0
8 -181 0
-267 -268 -3 -4 -271 -6 -273 -8 181 0
1 -182 0
268 -182 0
3 -182 0
4 -182 0
271 -182 0
6 -182 0
273 -182 0
8 -182 0
-1 -268 -3 -4 -271 -6 -273 -8 182 0
267 -183 0
2 -183 0
3 -183 0
4 -183 0
271 -183 0
6 -183 0
273 -183 0
8 -183 0
-267 -2 -3 -4 -271 -6 -273 -8 183 0
1 -184 0
2 -184 0
3 -184 0
4 -184 0
271 -184 0
6 -184 0
273 -184 0
8 -184 0
-1 -2 -3 -4 -271 -6 -273 -8 184 0
267 -185 0
268 -185 0
269 -185 0
270 -185 0
5 -185 0
6 -185 0
273 -185 0
8 -185 0
-267 -268 -269 -270 -5 -6 -273 -8 185 0
1 -186 0
268 -186 0
269 -186 0
270 -186 0
5 -186 0
6 -186 0
273 -186 0
8 -186 0
-1 -268 -269 -270 -5 -6 -273 -8 186 0
267 -187 0
2 -187 0
269 -187 0
270 -187 0
5 -187 0
6 -187 0
273 -187 0
8 -187 0
-267 -2 -269 -270 -5 -6 -273 -8 187 0
1 -188 0
2 -188 0
269 -188 0
270 -188 0
5 -188 0
6 -188 0
273 -188 0
8 -188 0
-1 -2 -269 -270 -5 -6 -273 -8 188 0
267 -189 0
268 -189 0
3 -189 0
270 -189 0
5 -189 0
6 -189 0
273 -189 0
8 -189 0
-267 -268 -3 -270 -5 -6 -273 -8 189 0
1 -190 0
268 -190 0
3 -190 0
270 -190 0
5 -190 0
6 -190 0
273 -190 0
8 -190 0
-1 -268 -3 -270 -5 -6 -273 -8 190 0
267 -191 0
2 -191 0
3 -191 0
270 -191 0
5 -191 0
6 -191 0
273 -191 0
8 -191 0
-267 -2 -3 -270 -5 -6 -273 -8 191 0
1 -192 0
2 -192 0
3 -192 0
270 -192 0
5 -192 0
6 -192 0
273 -192 0
8 -192 0
-1 -2 -3 -270 -5 -6 -273 -8 192 0
267 -193 0
268 -193 0
269 -193 0
4 -193 0
5 -193 0
6 -193 0
273 -193 0
8 -193 0
-267 -268 -269 -4 -5 -6 -273 -8 193 0
1 -194 0
268 -194 0
269 -194 0
4 -194 0
5 -194 0
6 -194 0
273 -194 0
8 -194 0
-1 -268 -269 -4 -5 -6 -273 -8 194 0
267 -195 0
2 -195 0
269 -195 0
4 -195 0
5 -195 0
6 -195 0
273 -195 0
8 -195 0
-267 -2 -269 -4 -5 -6 -273 -8 195 0
1 -196 0
2 -196 0
269 -196 0
4 -196 0
5 -196 0
6 -196 0
273 -196 0
8 -196 0
-1 -2 -269 -4 -5 -6 -273 -8 196 0
267 -197 0
268 -197 0
3 -197 0
4 -197 0
5 -197 0
6 -197 0
273 -197 0
8 -197 0
-267 -268 -3 -4 -5 -6 -273 -8 197 0
1 -198 0
268 -198 0
3 -198 0
4 -198 0
5 -198 0
6 -198 0
273 -198 0
8 -198 0
-1 -268 -3 -4 -5 -6 -273 -8 198 0
267 -199 0
2 -199 0
3 -199 0
4 -199 0
5 -199 0
6 -199 0
273 -199 0
8 -199 0
-267 -2 -3 -4 -5 -6 -273 -8 199 0
1 -200 0
2 -200 0
3 -200 0
4 -200 0
5 -200 0
6 -200 0
273 -200 0
8 -200 0
-1 -2 -3 -4 -5 -6 -273 -8 200 0
267 -201 0
268 -201 0
269 -201 0
270 -201 0
271 -201 0
272 -201 0
7 -201 0
8 -201 0
-267 -268 -269 -270 -271 -272 -7 -8 201 0
1 -202 0
268 -202 0
269 -202 0
270 -202 0
271 -202 0
272 -202 0
7 -202 0
8 -202 0
-1 -268 -269 -270 -271 -272 -7 -8 202 0
267 -203 0
2 -203 0
269 -203 0
270 -203 0
271 -203 0
272 -203 0
7 -203 0
8 -203 0
-267 -2 -269 -270 -271 -272 -7 -8 203 0
1 -204 0
2 -204 0
269 -204 0
270 -204 0
271 -204 0
272 -204 0
7 -204 0
8 -204 0
-1 -2 -269 -270 -271 -272 -7 -8 204 0
267 -205 0
268 -205 0
3 -205 0
270 -205 0
271 -205 0
272 -205 0
7 -205 0
8 -205 0
-267 -268 -3 -270 -271 -272 -7 -8 205 0
1 -206 0
268 -206 0
3 -206 0
270 -206 0
271 -206 0
272 -206 0
7 -206 0
8 -206 0
-1 -268 -3 -270 -271 -272 -7 -8 206 0
267 -207 0
2 -207 0
3 -207 0
270 -207 0
271 -207 0
272 -207 0
7 -207 0
8 -207 0
-267 -2 -3 -270 -271 -272 -7 -8 207 0
1 -208 0
2 -208 0
3 -208 0
270 -208 0
271 -208 0
272 -208 0
7 -208 0
8 -208 0
-1 -2 -3 -270 -271 -272 -7 -8 208 0
267 -209 0
268 -209 0
269 -209 0
4 -209 0
271 -209 0
272 -209 0
7 -209 0
8 -209 0
-267 -268 -269 -4 -271 -272 -7 -8 209 0
1 -210 0
268 -210 0
269 -210 0
4 -210 0
271 -210 0
272 -210 0
7 -210 0
8 -210 0
-1 -268 -269 -4 -271 -272 -7 -8 210 0
267 -211 0
2 -211 0
269 -211 0
4 -211 0
271 -211 0
272 -211 0
7 -211 0
8 -211 0
-267 -2 -269 -4 -271 -272 -7 -8 211 0
1 -212 0
2 -212 0
269 -212 0
4 -212 0
271 -212 0
272 -212 0
7 -212 0
8 -212 0
-1 -2 -269 -4 -271 -272 -7 -8 212 0
267 -213 0
268 -213 0
3 -213 0
4 -213 0
271 -213 0
272 -213 0
7 -213 0
8 -213 0
-267 -268 -3 -4 -271 -272 -7 -8 213 0
1 -214 0
268 -214 0
3 -214 0
4 -214 0
271 -214 0
272 -214 0
7 -214 0
8 -214 0
-1 -268 -3 -4 -271 -272 -7 -8 214 0
267 -215 0
2 -215 0
3 -215 0
4 -215 0
271 -215 0
272 -215 0
7 -215 0
8 -215 0
-267 -2 -3 -4 -271 -272 -7 -8 215 0
1 -216 0
2 -216 0
3 -216 0
4 -216 0
271 -216 0
272 -216 0
7 -216 0
8 -216 0
-1 -2 -3 -4 -271 -272 -7 -8 216 0
267 -217 0
268 -217 0
269 -217 0
270 -217 0
5 -217 0
272 -217 0
7 -217 0
8 -217 0
-267 -268 -269 -270 -5 -272 -7 -8 217 0
1 -218 0
268 -218 0
269 -218 0
270 -218 0
5 -218 0
272 -218 0
7 -218 0
8 -218 0
-1 -268 -269 -270 -5 -272 -7 -8 218 0
267 -219 0
2 -219 0
269 -219 0
270 -219 0
5 -219 0
272 -219 0
7 -219 0
8 -219 0
-267 -2 -269 -270 -5 -272 -7 -8 219 0
1 -220 0
2 -220 0
269 -220 0
270 -220 0
5 -220 0
272 -220 0
7 -220 0
8 -220 0
-1 -2 -269 -270 -5 -272 -7 -8 220 0
267 -221 0
268 -221 0
3 -221 0
270 -221 0
5 -221 0
272 -221 0
7 -221 0
8 -221 0
-267 -268 -3 -270 -5 -272 -7 -8 221 0
1 -222 0
268 -222 0
3 -222 0
270 -222 0
5 -222 0
272 -222 0
7 -222 0
8 -222 0
-1 -268 -3 -270 -5 -272 -7 -8 222 0
267 -223 0
2 -223 0
3 -223 0
270 -223 0
5 -223 0
272 -223 0
7 -223 0
8 -223 0
-267 -2 -3 -270 -5 -272 -7 -8 223 0
1 -224 0
2 -224 0
3 -224 0
270 -224 0
5 -224 0
272 -224 0
7 -224 0
8 -224 0
-1 -2 -3 -270 -5 -272 -7 -8 224 0
267 -225 0
268 -225 0
269 -225 0
4 -225 0
5 -225 0
272 -225 0
7 -225 0
8 -225 0
-267 -268 -269 -4 -5 -272 -7 -8 225 0
1 -226 0
268 -226 0
269 -226 0
4 -226 0
5 -226 0
272 -226 0
7 -226 0
8 -226 0
-1 -268 -269 -4 -5 -272 -7 -8 226 0
267 -227 0
2 -227 0
269 -227 0
4 -227 0
5 -227 0
272 -227 0
7 -227 0
8 -227 0
-267 -2 -269 -4 -5 -272 -7 -8 227 0
1 -228 0
2 -228 0
269 -228 0
4 -228 0
5 -228 0
272 -228 0
7 -228 0
8 -228 0
-1 -2 -269 -4 -5 -272 -7 -8 228 0
267 -229 0
268 -229 0
3 -229 0
4 -229 0
5 -229 0
272 -229 0
7 -229 0
8 -229 0
-267 -268 -3 -4 -5 -272 -7 -8 229 0
1 -230 0
268 -230 0
3 -230 0
4 -230 0
5 -230 0
272 -230 0
7 -230 0
8 -230 0
-1 -268 -3 -4 -5 -272 -7 -8 230 0
267 -231 0
2 -231 0
3 -231 0
4 -231 0
5 -231 0
272 -231 0
7 -231 0
8 -231 0
-267 -2 -3 -4 -5 -272 -7 -8 231 0
1 -232 0
2 -232 0
3 -232 0
4 -232 0
5 -232 0
272 -232 0
7 -232 0
8 -232 0
-1 -2 -3 -4 -5 -272 -7 -8 232 0
267 -233 0
268 -233 0
269 -233 0
270 -233 0
271 -233 0
6 -233 0
7 -233 0
8 -233 0
-267 -268 -269 -270 -271 -6 -7 -8 233 0
1 -234 0
268 -234 0
269 -234 0
270 -234 0
271 -234 0
6 -234 0
7 -234 0
8 -234 0
-1 -268 -269 -270 -271 -6 -7 -8 234 0
267 -235 0
2 -235 0
269 -235 0
270 -235 0
271 -235 0
6 -235 0
7 -235 0
8 -235 0
-267 -2 -269 -270 -271 -6 -7 -8 235 0
1 -236 0
2 -236 0
269 -236 0
270 -236 0
271 -236 0
6 -236 0
7 -236 0
8 -236 0
-1 -2 -269 -270 -271 -6 -7 -8 236 0
267 -237 0
268 -237 0
3 -237 0
270 -237 0
271 -237 0
6 -237 0
7 -237 0
8 -237 0
-267 -268 -3 -270 -271 -6 -7 -8 237 0
1 -238 0
268 -238 0
3 -238 0
270 -238 0
271 -238 0
6 -238 0
7 -238 0
8 -238 0
-1 -268 -3 -270 -271 -6 -7 -8 238 0
267 -239 0
2 -239 0
3 -239 0
270 -239 0
271 -239 0
6 -239 0
7 -239 0
8 -239 0
-267 -2 -3 -270 -271 -6 -7 -8 239 0
1 -240 0
2 -240 0
3 -240 0
270 -240 0
271 -240 0
6 -240 0
7 -240 0
8 -240 0
-1 -2 -3 -270 -271 -6 -7 -8 240 0
267 -241 0
268 -241 0
269 -241 0
4 -241 0
271 -241 0
6 -241 0
7 -241 0
8 -241 0
-267 -268 -269 -4 -271 -6 -7 -8 241 0
1 -242 0
268 -242 0
269 -242 0
4 -242 0
271 -242 0
6 -242 0
7 -242 0
8 -242 0
-1 -268 -269 -4 -271 -6 -7 -8 242 0
267 -243 0
2 -243 0
269 -243 0
4 -243 0
271 -243 0
6 -243 0
7 -243 0
8 -243 0
-267 -2 -269 -4 -271 -6 -7 -8 243 0
1 -244 0
2 -244 0
269 -244 0
4 -244 0
271 -244 0
6 -244 0
7 -244 0
8 -244 0
-1 -2 -269 -4 -271 -6 -7 -8 244 0
267 -245 0
268 -245 0
3 -245 0
4 -245 0
271 -245 0
6 -245 0
7 -245 0
8 -245 0
-267 -268 -3 -4 -271 -6 -7 -8 245 0
1 -246 0
268 -246 0
3 -246 0
4 -246 0
271 -246 0
6 -246 0
7 -246 0
8 -246 0
-1 -268 -3 -4 -271 -6 -7 -8 246 0
267 -247 0
2 -247 0
3 -247 0
4 -247 0
271 -247 0
6 -247 0
7 -247 0
8 -247 0
-267 -2 -3 -4 -271 -6 -7 -8 247 0
1 -248 0
2 -248 0
3 -248 0
4 -248 0
271 -248 0
6 -248 0
7 -248 0
8 -248 0
-1 -2 -3 -4 -271 -6 -7 -8 248 0
267 -249 0
268 -249 0
269 -249 0
270 -249 0
5 -249 0
6 -249 0
7 -249 0
8 -249 0
-267 -268 -269 -270 -5 -6 -7 -8 249 0
1 -250 0
268 -250 0
269 -250 0
270 -250 0
5 -250 0
6 -250 0
7 -250 0
8 -250 0
-1 -268 -269 -270 -5 -6 -7 -8 250 0
267 -251 0
2 -251 0
269 -251 0
270 -251 0
5 -251 0
6 -251 0
7 -251 0
8 -251 0
-267 -2 -269 -270 -5 -6 -7 -8 251 0
1 -252 0
2 -252 0
269 -252 0
270 -252 0
5 -252 0
6 -252 0
7 -252 0
8 -252 0
-1 -2 -269 -270 -5 -6 -7 -8 252 0
267 -253 0
268 -253 0
3 -253 0
270 -253 0
5 -253 0
6 -253 0
7 -253 0
8 -253 0
-267 -268 -3 -270 -5 -6 -7 -8 253 0
1 -254 0
268 -254 0
3 -254 0
270 -254 0
5 -254 0
6 -254 0
7 -254 0
8 -254 0
-1 -268 -3 -270 -5 -6 -7 -8 254 0
267 -255 0
2 -255 0
3 -255 0
270 -255 0
5 -255 0
6 -255 0
7 -255 0
8 -255 0
-267 -2 -3 -270 -5 -6 -7 -8 255 0
1 -256 0
2 -256 0
3 -256 0
270 -256 0
5 -256 0
6 -256 0
7 -256 0
8 -256 0
-1 -2 -3 -270 -5 -6 -7 -8 256 0
267 -257 0
268 -257 0
269 -257 0
4 -257 0
5 -257 0
6 -257 0
7 -257 0
8 -257 0
-267 -268 -269 -4 -5 -6 -7 -8 257 0
1 -258 0
268 -258 0
269 -258 0
4 -258 0
5 -258 0
6 -258 0
7 -258 0
8 -258 0
-1 -268 -269 -4 -5 -6 -7 -8 258 0
267 -259 0
2 -259 0
269 -259 0
4 -259 0
5 -259 0
6 -259 0
7 -259 0
8 -259 0
-267 -2 -269 -4 -5 -6 -7 -8 259 0
1 -260 0
2 -260 0
269 -260 0
4 -260 0
5 -260 0
6 -260 0
7 -260 0
8 -260 0
-1 -2 -269 -4 -5 -6 -7 -8 260 0
267 -261 0
268 -261 0
3 -261 0
4 -261 0
5 -261 0
6 -261 0
7 -261 0
8 -261 0
-267 -268 -3 -4 -5 -6 -7 -8 261 0
1 -262 0
268 -262 0
3 -262 0
4 -262 0
5 -262 0
6 -262 0
7 -262 0
8 -262 0
-1 -268 -3 -4 -5 -6 -7 -8 262 0
267 -263 0
2 -263 0
3 -263 0
4 -263 0
5 -263 0
6 -263 0
7 -263 0
8 -263 0
-267 -2 -3 -4 -5 -6 -7 -8 263 0
1 -264 0
2 -264 0
3 -264 0
4 -264 0
5 -264 0
6 -264 0
7 -264 0
8 -264 0
-1 -2 -3 -4 -5 -6 -7 -8 264 0
